p cnf 12 100
12 6 -9 0
-4 5 6 0
9 -4 7 0
9 2 -4 0
9 12 -11 0
-8 -10 -9 0
5 -11 12 0
3 -1 -11 0
12 -4 11 0
-4 6 -8 0
-3 4 10 0
3 5 1 0
2 10 12 0
-9 4 -11 0
-2 12 -1 0
3 8 -10 0
12 11 10 0
-5 6 2 0
-7 3 -10 0
-7 -12 -10 0
12 -7 -1 0
-10 -3 -11 0
-9 8 -10 0
-9 3 -1 0
5 -9 6 0
5 7 -6 0
1 5 9 0
1 2 12 0
11 -4 -8 0
-8 -5 6 0
-8 4 7 0
1 9 4 0
10 -8 9 0
-5 -3 -8 0
4 7 1 0
-11 -8 -10 0
-7 -11 -1 0
-12 -4 -3 0
4 11 6 0
1 -9 -12 0
6 12 -2 0
-11 6 -4 0
2 -1 5 0
3 8 9 0
12 1 6 0
-12 -8 -9 0
11 5 1 0
-2 1 11 0
-4 6 -11 0
4 -1 11 0
-5 -6 9 0
8 -1 -4 0
7 1 6 0
4 6 5 0
-9 -11 -1 0
5 4 -1 0
-10 -9 4 0
-1 10 5 0
-2 -8 9 0
1 -10 -6 0
-10 8 -9 0
1 10 6 0
3 -8 10 0
12 6 -9 0
-11 1 -12 0
-6 -2 -9 0
-3 9 -4 0
-3 12 -7 0
-12 9 -7 0
1 5 7 0
4 6 9 0
4 -2 -10 0
9 -6 2 0
6 -5 11 0
-4 -5 10 0
-5 -6 -3 0
-3 6 4 0
-5 12 2 0
-1 11 10 0
11 10 3 0
-5 -4 -11 0
-12 -8 11 0
11 3 -8 0
-12 -3 5 0
-4 -1 9 0
11 -2 -4 0
7 1 5 0
8 -10 5 0
-11 9 10 0
3 12 6 0
-9 10 3 0
8 -11 9 0
11 7 3 0
-10 -4 1 0
-8 -3 10 0
-7 12 6 0
1 4 7 0
11 -12 2 0
-10 -4 -8 0
9 2 12 0
